50, 569
6, 8
36, 18
18, 45
15, 5
32, 47
24, 27
19, 17
28, 50
30, 14
17, 14
36, 37
4, 30
2, 19
24, 22
25, 37
14, 14
48, 9
28, 29
21, 7
24, 14
40, 29
29, 9
48, 18
34, 29
3, 15
1, 11
4, 32
42, 23
16, 12
13, 10
36, 20
45, 40
47, 38
16, 3
12, 12
1, 32
16, 49
22, 36
49, 25
9, 19
38, 14
24, 45
47, 21
50, 22
13, 25
39, 17
25, 18
30, 6
40, 7
49, 38
